unsat
(define-fun f ((x (_ BitVec 64))) (_ BitVec 64) (im (bvand #b0000000000000000000000000000000000000000000000000000000000000001 x) (im (bvand #b0000000000000000000000000000000000000000000000000000000000000001 (shesh x)) (ehad x) #b0000000000000000000000000000000000000000000000000000000000000000) (smol x)))
0.57user 0.00system 0:00.58elapsed 100%CPU (0avgtext+0avgdata 35648maxresident)k
16inputs+8outputs (0major+3558minor)pagefaults 0swaps
